
Gurobi 11.0.3 (linux64) logging started Wed Apr 15 00:27:14 2026

Set parameter LogFile to value "tree/results/htds/htds_depth-3_run-2/Full MIP/LogFile_FullModel.txt"
Gurobi Optimizer version 11.0.3 build v11.0.3rc0 (linux64 - "CentOS Linux 7 (Core)")

CPU model: Intel(R) Xeon(R) Platinum 8260 CPU @ 2.40GHz, instruction set [SSE2|AVX|AVX2|AVX512]
Thread count: 96 physical cores, 192 logical processors, using up to 32 threads

Optimize a model with 18601 rows, 13050 columns and 333655 nonzeros
Model fingerprint: 0xe977dba6
Model has 1800 general constraints
Variable types: 7484 continuous, 5566 integer (5566 binary)
Coefficient statistics:
  Matrix range     [2e-03, 1e+04]
  Objective range  [4e-03, 1e+04]
  Bounds range     [1e+00, 6e+02]
  RHS range        [1e-04, 1e+03]

User MIP start produced solution with objective -113099 (0.08s)
Loaded user MIP start with objective -113099

Presolve added 1792 rows and 5400 columns
Presolve time: 0.27s
Presolved: 20393 rows, 18450 columns, 344431 nonzeros
Presolved model has 5400 SOS constraint(s)
Variable types: 7484 continuous, 10966 integer (10966 binary)
Root relaxation presolved: 20393 rows, 18450 columns, 344431 nonzeros

Deterministic concurrent LP optimizer: primal and dual simplex
Showing primal log only...

Concurrent spin time: 0.82s (can be avoided by choosing Method=3)

Solved with primal simplex

Root relaxation: objective 1.000000e+00, 6802 iterations, 3.77 seconds (4.85 work units)
Total elapsed time = 6.83s (DegenMoves)

    Nodes    |    Current Node    |     Objective Bounds      |     Work
 Expl Unexpl |  Obj  Depth IntInf | Incumbent    BestBd   Gap | It/Node Time

     0     0    1.00000    0  559 -113099.33    1.00000   100%     -    7s
     0     2    1.00000    0  559 -113099.33    1.00000   100%     -   14s
     3     8    1.00000    2  557 -113099.33    1.00000   100%   2.0   16s
    15    32    1.00000    4  573 -113099.33    1.00000   100%   372   20s
    31    64    1.00000    5  571 -113099.33    1.00000   100%   423   25s
H   33    64                    -7299.351111    1.00000   100%   398   25s
    63    96    1.00000    6  571 -7299.3511    1.00000   100%   254   46s
    95   128    1.00000    7  571 -7299.3511    1.00000   100%   178   63s
H   96   128                       0.5244444    1.00000  90.7%   176   63s
H  105   128                       0.5688889    1.00000  75.8%   163   63s
H  121   128                       0.5733333    1.00000  74.4%   147   63s
   127   160    1.00000    8  572    0.57333    1.00000  74.4%   140   81s
   159   192    1.00000    9  571    0.57333    1.00000  74.4%   116   99s
   191   245    1.00000   10  233    0.57333    1.00000  74.4%   103  104s
   244   315    1.00000   12  233    0.57333    1.00000  74.4%   294  197s
H  313   315                       0.5777778    1.00000  73.1%   365  197s
   314   776    1.00000   21 1156    0.57778    1.00000  73.1%   365  249s
   779  1379    1.00000   30 1605    0.57778    1.00000  73.1%  1129  532s
  1386  2734    1.00000   40 1565    0.57778    1.00000  73.1%  1519  964s
H 1557  2734                       0.6622222    1.00000  51.0%  1557  964s
  2741  4999    1.00000   52 1473    0.66222    1.00000  51.0%  1690 1475s
H 3359  4999                       0.6755556    1.00000  48.0%  1764 1475s
  5006  6848    1.00000   86 1503    0.67556    1.00000  48.0%  1725 2155s
  6855  9171    1.00000  111 1486    0.67556    1.00000  48.0%  1778 2563s
  9178 11324    1.00000  151 1445    0.67556    1.00000  48.0%  1811 3366s
 11394 11355    1.00000  193 1430    0.67556    1.00000  48.0%  1823 3600s

Explored 11427 nodes (20869271 simplex iterations) in 3600.40 seconds (8053.59 work units)
Thread count was 32 (of 192 available processors)

Solution count 8: 0.675556 0.662222 0.577778 ... -113099

Time limit reached
Best objective 6.755555555556e-01, best bound 1.000000000000e+00, gap 48.0263%

User-callback calls 1768648, time in user-callback 9.92 sec
